200
1000
795
782
780
775
774
768
764
764
758
757
751
741
739
735
733
732
730
729
728
726
724
723
723
722
718
714
713
710
710
709
707
705
703
698
690
688
687
685
680
675
674
671
671
670
670
669
666
657
655
641
637
637
636
634
633
633
632
627
624
622
617
614
612
606
599
597
595
594
591
589
587
586
583
580
579
576
575
573
572
571
565
564
562
561
560
560
552
544
544
543
543
542
538
536
535
534
529
527
517
516
513
511
508
498
493
493
493
492
485
479
478
473
470
469
462
460
459
458
457
454
454
451
450
442
441
438
437
436
433
427
424
422
422
414
413
408
405
399
398
396
396
396
395
386
381
370
361
359
354
347
346
335
332
330
327
327
326
324
323
323
318
312
305
303
301
299
291
281
280
279
275
268
263
263
260
260
258
257
256
253
252
252
251
246
238
238
231
231
228
227
224
222
221
220
216
214
213
212
211
207
